50
362
4
64
39
96
25
0 1
0 3
0 5
0 8
0 12
0 13
0 15
0 24
0 30
0 36
0 37
0 40
0 41
0 45
0 46
0 48
1 2
1 7
1 14
1 16
1 17
1 23
1 26
1 31
1 33
1 39
1 40
2 5
2 21
2 22
2 25
2 37
2 42
3 7
3 8
3 13
3 14
3 15
3 26
3 27
3 28
3 30
3 32
3 34
3 35
3 36
3 38
3 39
3 41
3 42
3 44
3 45
4 6
4 11
4 14
4 17
4 18
4 21
4 22
4 28
4 30
4 43
4 46
4 48
5 11
5 12
5 18
5 21
5 26
5 29
5 31
5 35
5 41
5 42
5 43
5 44
5 45
5 46
5 48
6 7
6 12
6 14
6 16
6 17
6 22
6 23
6 25
6 29
6 36
6 38
6 40
6 41
6 42
6 43
6 47
6 48
7 9
7 13
7 16
7 19
7 20
7 24
7 28
7 35
7 36
7 41
7 42
7 45
8 13
8 15
8 16
8 18
8 19
8 21
8 22
8 28
8 31
8 33
8 36
8 38
8 39
8 41
8 42
9 11
9 12
9 16
9 23
9 26
9 30
9 35
9 39
9 41
9 45
10 13
10 18
10 21
10 24
10 29
10 31
10 34
10 36
10 37
10 39
10 48
10 49
11 14
11 16
11 24
11 30
11 34
11 40
11 41
11 47
12 17
12 22
12 31
12 32
12 33
12 35
12 39
12 43
12 45
12 47
12 48
13 16
13 21
13 30
13 33
13 34
13 38
13 41
13 47
13 49
14 24
14 25
14 29
14 31
14 35
14 39
14 40
14 43
14 46
15 16
15 17
15 20
15 24
15 30
15 33
15 35
15 36
15 37
15 40
15 48
16 18
16 22
16 23
16 25
16 27
16 32
16 34
16 35
16 41
16 43
16 45
16 46
16 49
17 19
17 20
17 21
17 22
17 24
17 28
17 29
17 31
17 33
17 39
17 40
17 42
17 43
17 46
18 22
18 33
18 38
18 39
18 40
18 41
19 24
19 25
19 27
19 30
19 35
19 38
19 40
19 43
19 49
20 23
20 25
20 31
20 33
20 34
20 43
20 44
20 46
21 26
21 28
21 30
21 32
21 33
21 36
21 38
21 40
21 42
21 44
22 24
22 25
22 26
22 29
22 35
22 38
22 39
22 48
23 31
23 34
23 35
23 38
23 44
23 48
24 29
24 31
24 32
24 37
24 40
24 41
24 42
24 43
24 44
25 26
25 31
25 40
25 43
25 47
26 27
26 30
26 34
26 46
26 47
27 29
27 31
27 33
27 36
27 37
27 41
27 48
28 39
28 41
28 42
28 48
29 30
29 34
29 46
29 47
29 48
30 32
30 36
30 38
30 39
30 46
30 49
31 32
31 33
31 34
31 35
31 37
31 40
31 43
31 44
31 47
31 48
31 49
32 40
32 43
33 35
33 40
33 41
34 40
34 42
34 48
35 39
35 40
35 47
36 38
36 39
36 41
36 43
36 44
36 45
36 49
37 38
37 41
37 45
37 46
37 47
38 39
38 40
38 44
38 47
38 48
38 49
39 40
39 42
40 47
41 47
42 43
42 48
43 45
43 46
43 47
43 49
45 47
46 48
46 49
48 49
48 38 0 23 25 11 36 31 12 45 13 49 16 35 21
2 18 29 3 46 4 37 43 20 19 34 42 26 32 40
9 27 14 41 15 7 47 6 17 28 10 22 30 8 24
1 33 5 39 44
